24103 24073 23756 22553 22118 22312 21493 21309 21397 20992 20687 20169 20125 19919 19555 19297 18994 18679 18395 18609 18092 18172 17672 17317 17248 16962 17067 16984 16705 16292 16260 16072 15910 15759 15529 15452 15272 15036 14993 14888 14775 14631 14548 14341 14187 14028 13937 13890 13739 13639 13575 13475 13322 13205 13144 13142 13010 12945 12824 12773 12709 12615 12592 12439 12419 12337 12252 12197 12153 12107 12055 12062 12019 11931 11961 11854 11839 11701 11684 11643 11614 11619 11509 11530 11426 11444 11384 11289 11212 11188 11174 11142 11135 11092 11051 10979 10945 10905 10870 10841 10785 10721 10723 10666 10618 10595 10539 10499 10429 10397 10399 10374 10348 10341 10326 10317 10324 10298 10278 10230 10233 10222 10205 10165 10154 10141 10131 10111 10075 10085 10064 10031 10026 10045 9970 9935 9967 9923 9920 9845 9829 9791 9797 9808 9835 9821 9737 9718 9708 9746 9729 9721 9693 9614 9655 9647 9621 9613 9616 9588 9598 9580 9619 9585 9559 9547 9536 9536 9543 9555 9518 9496 9459 9451 9456 9475 9466 9417 9401 9405 9391 9375 9412 9354 9353 9357 9358 9324 9324 9325 9323 9315 9292 9293 9283 9269 9272 9261 9266 9239 9222 9225 9215 9215 9187 9196 9187 9182 9168 9156 9151 9136 9123 9121 9107 9105 9083 9094 9102 9070 9083 9077 9071 9085 9038 9032 9021 8964 9051 9009 9021 8977 9030 8991 8989 8968 8947 8967 8964 8967 8944 8938 8954 8951 8926 8924 8909 8900 8885 8888 8883 8866 8881 8869 8848 8848 8859 8864 8864 8866 8846 8749 8830 8830 8830 8709 8781 8779 8783 8783 8786 8786 8777 8780 8783 8782 8765 8713 8695 8705 8697 8658 8664 8670 8673 8641 8616 8660 8647 8620 8634 8619 8616 8573 8533 8533 8529 8515 8551 8536 8532 8501 8472 8450 8423 8405 8391 8376 8368 8351 8380 8372 8370 8345 8420 8397 8322 8453 8368 8341 8348 8393 8383 8320 8310 8307 8288 8283 8302 8286 8292 8283 8341 8365 8333 8362 8383 8332 8323 8315 8344 8331 8322 8310 8333 8297 8267 8274 8254 8253 8229 8240 8233 8219 8227 8222 8263 8244 8255 8222 8218 8207 8197 8194 8175 8165 8147 8138 8189 8164 8136 8188 8157 8117 8090 8086 8075 8066 8045 8078 8061 8038 8030 8030 8107 8105 8025 8000 8052 8026 7976 8099 8034 7944 8088 8085 8026 7941 8014 8011 7991 7919 7910 8001 8001 7949 7949 7952 7949 7943 7917 7912 7891 7865 7943 7924 7882 7919 7886 7869 7852 7845 7826 7820 7834 7827 7813 7797 7796 7792 7778 7768 7760 7734 7709 7691 7688 7675 7670 7651 7646 7637 7636 7626 7620 7619 7602 7600 7587 7587 7584 7584 7566 7566 7565 7555 7543 7537 7526 7523 7521 7518 7511 7511 7502 7498 7491 7480 7476 7467 7459 7445 7439 7433 7428 7427 7421 7418 7413 7407 7407 7401 7396 7391 7386 7381 7374 7369 7361 7356 7348 7344 7331 7329 7327 7316 7312 7301 7296 7295 7294 7292 7290 7288 7284 7279 7276 7274 7265 7261 7254 7249 7240 7240 7234 7233 7229 7218 7214 7214 7214 7209 7209 7205 7205 7201 7197 7195 7192 7192 7189 7187 7183 7182 7180 7178 7177 7175 7171 7166 7165 7159 7157 7156 7155 7152 7152 7131 7128 7094 7093 7092 7086 7084 7084 7082 7081 7079 7077 7073 7071 7069 7064 7062 7062 7061 7061 7056 7055 7055 7052 7039 7039 7036 7033 7033 7033 7029 7028 7024 7021 7011 7009 7002 6999 6996 6995 6995 6995 6976 6975 6974 6957 6956 6955 6955 6955 6955 6955 6954 6954 6954 6952 6950 6948 6948 6946 6943 6941 6940 6939 6938 6937 6936 6933 6930 6930 6930 6924 6923 6923 6921 6921 6919 6896 6896 6895 6895 6895 6885 6885 6884 6884 6884 6882 6881 6881 6880 6874 6874 6869 6869 6861 6858 6854 6850 6841 6841 6838 6838 6837 6836 6835 6834 6832 6812 6805 6802 6798 6797 6716 6716 6716 6716 6716 6713 6711 6711 6711 6711 6711 6709 6708 6706 6705 6684 6683 6677 6673 6672 6671 6670 6669 6669 6669 6669 6667 6667 6656 6656 6654 6654 6654 6654 6646 6646 6646 6646 6646 6644 6643 6643 6643 6643 6643 6634 6634 6633 6633 6633 6630 6630 6630 6628 6624 6624 6624 6623 6623 6623 6622 6621 6621 6617 6617 6614 6612 6612 6612 6612 6611 6611 6597 6596 6596 6596 6596 6596 6596 6596 6596 6596 6596 6596 6595 6595 6592 6592 6589 6589 6589 6589 6586 6580 6580 6577 6577 6577 6576 6576 6575 6575 6574 6570 6569 6569 6566 6566 6566 6565 6565 6565 6565 6562 6552 6552 6546 6546 6539 6539 6539 6538 6537 6536 6535 6533 6533 6533 6532 6532 6531 6531 6530 6529 6529 6529 6529 6529 6529 6529 6521 6521 6520 6520 6517 6517 6517 6517 6517 6517 6516 6516 6516 6516 6516 6516 6516 6516 6516 6515 6515 6515 6515 6515 6515 6515 6515 6515 6515 6515 6515 6515 6515 6515 6515 6515 6515 6515 6515 6515 6515 6515 6515 6515 6515 6515 6511 6511 6511 6511 6503 6503 6494 6489 6480 6480 6480 6480 6472 6470 6470 6464 6454 6452 6451 6451 6451 6444 6444 6443 6443 6443 6443 6443 6442 6442 6441 6441 6440 6440 6440 6440 6440 6440 6439 6439 6439 6438 6438 6438 6438 6438 6438 6438 6438 6438 6435 6435 6435 6421 6386 6383 6382 6382 6382 6370 6370 6370 6368 6368 6368 6368 6368 6368 6368 6357 6356 6356 6355 6347 6331 6331 6330 6330 6330 6324 6321 6321 6321 6321 6321 6321 6321 6319 6319 6319 6319 6319 6311 6311 6311 6311 6311 6311 6311 6310 6310 6310 6310 6310 6304 6304 6304 6304 6304 6304 6304 6304 6304 6304 6304 6304 6304 6304 6303 6303 6298 6298 6297 6297 6297 6297 6297 6297 6297 6296 6296 6296 6296 6296 6296 6296 6296 6296 6292 6292 6292 6292 6292 6290 6290 6290 6290 6290 6290 6290 6290 6290 6290 6290 6290 6290 6290 6290 6290 6290 6290 6290 6288 6287 6287 6287 6286 6286 6277 6277 6276 6276 6276 6276 6274 6274 6274 6274 6274 6274 6274 6274 6274 6274 6274 6274 6274 6274 6242 6242 6242 6234 6234 6234 6234 6234 6234 6234 6234 6234 6234 6234 6225 6225 6223 6223 6223 6223 6222 6222 6222 6216 6215 6215 6215 6214 6214 6214 6213 6212 6212 6212 6212 6203 6203 6202 6201 6201 6201 6201 6201 6198 6184 6184 6178 6178 6178 6178 6173 6172 6172 6167 6166 6164 6164 6164 6161 6158 6158 6158 6158 6158 6158 6158 6146 6144 6144 6144 6144 6142 6142 6142 6142 6138 6138 6138 6138 6138 6138 6138 6138 6138 6135 6135 6135 6135 6135 6135 6135 6135 6135 6135 6133 6133 6133 6133 6133 6132 6130 6130 6129 6127 6127 6126 6123 6123 6123 6123 6123 6122 6122 6122 6122 6116 6116 6116 6116 6116 6116 6116 6116 6116 6116 6104 6104 6104 6100 6100 6099 6099 6099 6099 6099 6099 6099 6096 6096 6096 6096 6096 6095 6095 6095 6095 6095 6095 6095 6095 6095 6095 6093 6093 6093 6093 6093 6093 6093 6093 6093 6093 6092 6092 6092 6092 6092 6092 6088 6088 6088 6088 6088 6088 6088 6088 6079 6079 6079 6079 6079 6079 6078 6078 6078 6078 6078 6078 6078 6078 6078 6078 6077 6077 6077 6077 6077 6077 6077 6077 6077 6075 6075 6075 6075 6071 6071 6071 6071 6071 6071 6071 6071 6071 6071 6070 6070 6070 6070 6070 6070 6070 6070 6070 6070 6070 6070 6070 6070 6070 6070 6070 6070 6070 6070 6070 6070 6070 6070 6070 6070 6070 6070 6070 6070 6070 6070 6070 6070 6070 6070 6070 6070 6070 6070 6070 6070 6070 6070 6070 6070 6070 6070 6070 6070 6070 6070 6070 6070 6070 6068 6068 6068 6068 6068 6066 6066 6065 6065 6065 6065 6065 6065 6065 6065 6065 6064 6064 6064 6064 6064 6064 6064 6064 6064 6064 6064 6064 6062 6062 6062 6062 6062 6062 6062 6062 6055 6055 6055 6055 6055 6039 6032 6030 6019 5992 5990 5974 5970 5958 5958 5958 5958 5958 5958 5953 5953 5953 5953 5953 5953 5953 5953 5953 5953 5953 5953 5953 5953 5953 5953 5953 5953 5953 5953 5953 5953 5953 5953 5953 5949 5948 5948 5948 5944 5944 5944 5944 5944 5944 5944 5930 5930 5930 5930 5930 5930 5930 5930 5930 5930 5930 5930 5930 5930 5930 5930 5930 5930 5930 5930 5930 5930 5930 5930 5930 5930 5914 5914 5914 5914 5914 5914 5914 5914 5914 5914 5914 5914 5914 5914 5914 5914 5914 5914 5914 5914 5914 5913 5913 5913 5913 5913 5913 5913 5913 5913 5913 5913 5913 5913 5913 5913 5913 5913 5913 5913 5891 5891 5891 5891 5891 5891 5891 5891 5891 5891 5891 5891 5891 5891 5891 5891 5891 5891 5891 5891 5891 5891 5890 5890 5890 5890 5890 5890 5890 5890 5890 5890 5890 5890 5890 5890 5890 5890 5890 5890 5890 5890 5890 5890 5890 5890 5890 5890 5890 5890 5890 5890 5890 5890 5890 5890 5890 5890 5890 5890 5890 5890 5890 5890 5890 5890 5890 5890 5890 5890 5890 5890 5890 5890 5890 5890 5890 5890 5890 5889 5889 5889 5889 5889 5889 5889 5889 5889 5889 5889 5889 5889 5889 5889 5889 5889 5889 5889 5889 5888 5888 5888 5888 5888 5888 5888 5888 5888 5888 5888 5888 5888 5888 5888 5888 5888 5888 5888 5888 5888 5888 5888 5888 5888 5888 5888 5888 5888 5888 5888 5888 5888 5888 5888 5888 5888 5888 5888 5888 5888 5888 5888 5888 5888 5888 5888 5888 5888 5888 5888 5888 5888 5888 5888 5888 5888 5888 5888 5888 5888 5888 5888 5888 5888 5888 5888 5888 5888 5888 5888 5888 5888 5888 5888 5888 5888 5888 5888 5888 5888 5888 5888 5888 5888 5888 5888 5888 5888 5888 5888 5888 5888 5888 5888 5888 5888 5888 5888 5888 5888 5888 5888 5888 5888 5888 5888 5888 5888 5888 5888 5888 5888 5888 5888 5888 5888 5888 5888 5888 5888 5888 5888 5888 5888 5888 5888 5888 5888 5888 5888 5888 5888 5888 5888 5888 5888 5888 5888 5888 5888 5888 5888 5888 5888 5888 5888 5888 5888 5888 5888 5888 5888 5888 5888 5888 5888 5888 5888 5888 5888 5888 5888 5888 5888 5888 5888 5888 5888 5888 5888 5888 5888 5888 5888 5888 5888 5888 5888 5888 5888 5888 5888 5888 5888 5888 5888 5888 5888 5888 5888 5888 5888 5888 5888 5888 5888 5888 5888 5888 5888 5888 5888 5888 5888 5888 5888 5888 5888 5888 5888 5888 5888 5888 5888 5888 5888 5888 5888 5888 5888 5888 5888 5888 5888 5888 5888 5888 5888 5888 5888 5888 5888 5888 5888 5888 5888 5888 5888 5888 5888 5888 5888 5888 5888 5888 5888 5888 5888 5888 5888 5888 5888 5888 5888 5888 5888 5888 5888 5888 5888 5888 5888 5888 5888 5888 5888 5888 5888 5888 5888 5888 5888 5888 5888 5888 5888 5888 5888 5888 5888 5888 5888 5888 5888 5888 5888 5888 5888 5888 5888 5888 5888 5888 5888 5888 5888 5888 5888 5888 5888 5888 5888 5888 5888 5888 5888 5888 5888 5888 5888 5888 5888 5888 5888 5888 5888 5888 5888 5888 5888 5888 5888 5888 5888 5888 5888 5888 5888 5888 5888 5888 5888 5888 5888 5888 5888 5888 5888 5888 5888 5888 5888 5888 5888 5888 5888 5888 5888 5888 5888 5888 5888 5888 5888 5888 5888 5888 5888 5888 5888 5888 5888 5888 5888 5888 5888 5888 5888 5888 5888 5888 5888 5888 5888 5888 5888 5888 5888 5888 5888 5888 5888 5888 5888 5888 5888 5888 5888 5888 5888 5888 5888 5888 5888 5884 5884 5884 5884 5884 5884 5884 5884 5884 5884 5884 5884 5884 5884 5884 5884 5884 5884 5884 5884 5884 5884 5884 5884 5884 5884 5884 5884 5884 5884 5884 5884 5884 5884 5884 5884 5884 5884 5884 5884 5884 5884 5884 5884 5884 5884 5884 5884 5884 5884 5884 5884 5884 5884 5884 5884 5884 5884 5884 5884 5884 5884 5884 5884 5884 5884 5884 5884 5884 5884 5884 5884 5884 5884 5884 5884 5884 5884 5884 5884 5884 5884 5884 5884 5884 5884 5884 5884 5884 5884 5884 5884 5884 5884 5884 5884 5884 5884 5884 5884 5884 5884 5884 5884 5884 5884 5884 5884 5884 5884 5884 5884 5884 5884 5884 5884 5884 5884 5884 5884 5884 5884 5884 5884 5884 5884 5884 5884 5884 5884 5884 5884 5884 5884 5884 5884 5884 5884 5884 5884 5884 5884 5884 5884 5884 5884 5884 5884 5884 5884 5884 5884 5884 5884 5884 5884 5884 5884 5884 5884 5884 5884 5884 5884 5884 5884 5884 5884 5884 5884 5884 5884 5884 5884 5884 5884 5884 5884 5884 5884 5884 5884 5884 5884 5884 5884 5884 5884 5884 5884 5884 5884 5884 5884 5884 5884 5884 5884 5884 5884 5884 5884 5884 5884 5884 5884 5884 5884 5884 5884 5884 5884 5884 5884 5884 5884 5884 5884 5884 5884 5884 5884 5884 5884 5884 5884 5884 5884 5884 5884 5884 5884 5884 5884 5884 5884 5883 5883 5883 5883 5883 5883 5883 5883 5883 5883 5883 5883 5883 5883 5883 5883 5883 5883 5883 5883 5883 5883 5883 5883 5883 5883 5883 5883 5883 5883 5883 5883 5883 5883 5883 5883 5883 5883 5883 5883 5883 5883 5883 5883 5883 5883 5883 5883 5883 5883 5883 5883 5883 5883 5883 5883 5883 5883 5883 5883 5883 5883 5883 5883 5883 5883 5883 5883 5883 5883 5883 5883 5883 5883 5883 5883 5883 5883 5883 5883 5883 5883 5883 5883 5883 5883 5883 5883 5883 5883 5883 5883 5883 5883 5883 5883 5883 5883 5883 5883 5883 5883 5883 5883 5883 5883 5883 5883 5883 5883 5883 5883 5883 5883 5883 5883 5883 5883 5883 5883 5883 5883 5883 5883 5883 5883 5883 5883 5883 5883 5883 5883 5883 5883 5883 5883 5883 5883 5883 5883 5883 5883 5883 5883 5883 5883 5883 5883 5883 5883 5883 5883 5883 5883 5883 5883 5883 5883 5883 5883 5883 5883 5883 5883 5883 5883 5883 5883 5883 5883 5883 5883 5883 5883 5883 5883 5883 5883 5883 5883 5883 5883 5883 5883 5883 5883 5883 5883 5883 5883 5883 5883 5883 5883 5883 5883 5883 5883 5883 5883 5883 5883 5883 5883 5883 5883 5883 5883 5883 5883 5883 5883 5883 5883 5883 5883 5883 5883 5883 5883 5883 5883 5883 5883 5883 5883 5883 5883 5883 5883 5883 5883 5883 5883 5883 5883 5883 5883 5883 5883 5883 5883 5883 5883 5883 5883 5883 5883 5883 5883 5883 5883 5883 5883 5883 5883 5883 5883 5883 5883 5883 5883 5883 5883 5883 5883 5883 5883 5883 5883 5883 5883 5883 5883 5883 5883 5883 5883 5883 5883 5883 5883 5883 5883 5883 5883 5883 5883 5883 5883 5883 5883 5883 5883 5883 5883 5883 5883 5883 5883 5883 5883 5883 5883 5883 5883 5883 5883 5883 5883 5883 5883 5883 5883 5883 5883 5883 5883 5883 5883 5883 5883 5883 5883 5883 5883 5883 5883 5883 5883 5883 5883 5883 5883 5883 5883 5883 5883 5883 5883 5883 5883 5883 5883 5883 5883 5883 5883 5883 5883 5883 5883 5883 5883 5883 5883 5883 5883 5883 5883 5883 5883 5883 5883 5883 5883 5883 5883 5883 5883 5883 5883 5883 5883 5883 5883 5883 5883 5883 5883 5883 5883 5883 5883 5883 5883 5883 5883 5883 5883 5883 5883 5883 5883 5883 5883 5883 5883 5883 5883 5883 5883 5883 5883 5883 5883 5883 5883 5883 5883 5883 5883 5883 5883 5883 5883 5883 5883 5883 5883 5883 5883 5883 5883 5883 5883 5883 5883 5883 5883 5883 5883 5883 5883 5883 5883 5883 5883 5883 5883 5883 5883 5883 5883 5883 5883 5883 5883 5883 5883 5883 5883 5883 5883 5883 5883 5883 5883 5883 5883 5883 5883 5883 5883 5883 5883 5883 5883 5883 5883 5883 5883 5883 5883 5883 5883 5883 5883 5883 5883 5883 5883 5883 5883 5883 5883 5883 5883 5883 5883 5883 5883 5883 5883 5883 5883 5883 5883 5883 5883 5883 
16727 16402 15931 14740 14643 14473 13946 13762 13431 12880 12718 12587 12182 11810 11585 11277 10982 10590 10308 10161 9957 9730 9485 9241 8916 8772 8700 8556 8364 8088 7866 7774 7544 7277 7111 7020 6832 6621 6564 6478 6363 6226 6108 5924 5712 5587 5545 5420 5275 5166 5062 4932 4781 4696 4635 4556 4448 4389 4265 4219 4139 4025 3987 3884 3813 3749 3675 3580 3545 3493 3456 3411 3380 3329 3288 3230 3178 3099 3062 3019 2974 2949 2911 2877 2822 2791 2732 2684 2610 2570 2563 2538 2508 2488 2447 2408 2360 2315 2289 2260 2201 2165 2139 2094 2051 2014 1985 1945 1918 1886 1868 1839 1800 1794 1776 1758 1734 1708 1683 1656 1638 1627 1627 1608 1597 1573 1562 1547 1513 1510 1490 1457 1452 1445 1430 1401 1393 1383 1363 1350 1332 1305 1297 1286 1283 1271 1251 1237 1223 1205 1191 1176 1162 1151 1137 1120 1109 1099 1072 1055 1038 1024 1009 1005 989 983 966 958 951 945 931 920 908 900 890 881 873 864 850 839 827 825 823 817 813 799 793 764 764 761 751 745 742 741 713 712 710 708 702 693 684 673 666 666 645 642 641 630 628 619 616 593 591 589 586 584 579 576 561 556 552 546 543 541 534 534 529 524 521 520 515 512 509 507 503 477 477 475 470 462 462 460 452 443 443 441 428 424 412 410 410 409 407 407 400 400 397 396 396 390 388 386 356 356 356 353 352 345 343 343 330 330 330 327 326 323 277 276 274 271 271 270 269 265 264 263 262 260 258 258 256 252 251 251 251 251 251 251 250 250 249 249 249 249 249 249 249 249 249 249 246 246 246 246 244 244 226 224 224 224 223 215 215 214 214 214 214 214 212 212 211 211 208 195 194 190 189 184 183 177 166 160 160 160 155 144 144 139 139 139 139 117 117 117 113 113 111 110 104 88 88 88 88 88 88 88 88 88 84 84 84 67 67 67 67 67 67 67 67 66 66 66 63 63 47 47 47 47 43 43 41 38 38 38 35 35 27 27 26 26 26 26 26 17 17 17 17 11 11 11 8 8 8 8 7 3 3 2 2 2 2 2 2 2 0 0 0 0 0 0 0 0 0 0 0 0 0 0 0 0 0 0 0 0 0 0 0 0 0 0 0 0 0 0 0 0 0 0 0 0 0 0 0 0 0 0 0 0 0 0 0 0 0 0 0 0 0 0 0 0 0 0 0 0 0 0 0 0 0 0 0 0 0 0 0 0 0 0 0 0 0 0 0 0 0 0 0 0 0 0 0 0 0 0 0 0 0 0 0 0 0 0 0 0 0 0 0 0 0 0 0 0 0 0 0 0 0 0 0 0 0 0 0 0 0 0 0 0 0 0 0 0 0 0 0 0 0 0 0 0 0 0 0 0 0 0 0 0 0 0 0 0 0 0 0 0 0 0 0 0 0 0 0 0 0 0 0 0 0 0 0 0 0 0 0 0 0 0 0 0 0 0 0 0 0 0 0 0 0 0 0 0 0 0 0 0 0 0 0 0 0 0 0 0 0 0 0 0 0 0 0 0 0 0 0 0 0 0 0 0 0 0 0 0 0 0 0 0 0 0 0 0 0 0 0 0 0 0 0 0 0 0 0 0 0 0 0 0 0 0 0 0 0 0 0 0 0 0 0 0 0 0 0 0 0 0 0 0 0 0 0 0 0 0 0 0 0 0 0 0 0 0 0 0 0 0 0 0 0 0 0 0 0 0 0 0 0 0 0 0 0 0 0 0 0 0 0 0 0 0 0 0 0 0 0 0 0 0 0 0 0 0 0 0 0 0 0 0 0 0 0 0 0 0 0 0 0 0 0 0 0 0 0 0 0 0 0 0 0 0 0 0 0 0 0 0 0 0 0 0 0 0 0 0 0 0 0 0 0 0 0 0 0 0 0 0 0 0 0 0 0 0 0 0 0 0 0 0 0 0 0 0 0 0 0 0 0 0 0 0 0 0 0 0 0 0 0 0 0 0 0 0 0 0 0 0 0 0 0 0 0 0 0 0 0 0 0 0 0 0 0 0 0 0 0 0 0 0 0 0 0 0 0 0 0 0 0 0 0 0 0 0 0 0 0 0 0 0 0 0 0 0 0 0 0 0 0 0 0 0 0 0 0 0 0 0 0 0 0 0 0 0 0 0 0 0 0 0 0 0 0 0 0 0 0 0 0 0 0 0 0 0 0 0 0 0 0 0 0 0 0 0 0 0 0 0 0 0 0 0 0 0 0 0 0 0 0 0 0 0 0 0 0 0 0 0 0 0 0 0 0 0 0 0 0 0 0 0 0 0 0 0 0 0 0 0 0 0 0 0 0 0 0 0 0 0 0 0 0 0 0 0 0 0 0 0 0 0 0 0 0 0 0 0 0 0 0 0 0 0 0 0 0 0 0 0 0 0 0 0 0 0 0 0 0 0 0 0 0 0 0 0 0 0 0 0 0 0 0 0 0 0 0 0 0 0 0 0 0 0 0 0 0 0 0 0 0 0 0 0 0 0 0 0 0 0 0 0 0 0 0 0 0 0 0 0 0 0 0 0 0 0 0 0 0 0 0 0 0 0 0 0 0 0 0 0 0 0 0 0 0 0 0 0 0 0 0 0 0 0 0 0 0 0 0 0 0 0 0 0 0 0 0 0 0 0 0 0 0 0 0 0 0 0 0 0 0 0 0 0 0 0 0 0 0 0 0 0 0 0 0 0 0 0 0 0 0 0 0 0 0 0 0 0 0 0 0 0 0 0 0 0 0 0 0 0 0 0 0 0 0 0 0 0 0 0 0 0 0 0 0 0 0 0 0 0 0 0 0 0 0 0 0 0 0 0 0 0 0 0 0 0 0 0 0 0 0 0 0 0 0 0 0 0 0 0 0 0 0 0 0 0 0 0 0 0 0 0 0 0 0 0 0 0 0 0 0 0 0 0 0 0 0 0 0 0 0 0 0 0 0 0 0 0 0 0 0 0 0 0 0 0 0 0 0 0 0 0 0 0 0 0 0 0 0 0 0 0 0 0 0 0 0 0 0 0 0 0 0 0 0 0 0 0 0 0 0 0 0 0 0 0 0 0 0 0 0 0 0 0 0 0 0 0 0 0 0 0 0 0 0 0 0 0 0 0 0 0 0 0 0 0 0 0 0 0 0 0 0 0 0 0 0 0 0 0 0 0 0 0 0 0 0 0 0 0 0 0 0 0 0 0 0 0 0 0 0 0 0 0 0 0 0 0 0 0 0 0 0 0 0 0 0 0 0 0 0 0 0 0 0 0 0 0 0 0 0 0 0 0 0 0 0 0 0 0 0 0 0 0 0 0 0 0 0 0 0 0 0 0 0 0 0 0 0 0 0 0 0 0 0 0 0 0 0 0 0 0 0 0 0 0 0 0 0 0 0 0 0 0 0 0 0 0 0 0 0 0 0 0 0 0 0 0 0 0 0 0 0 0 0 0 0 0 0 0 0 0 0 0 0 0 0 0 0 0 0 0 0 0 0 0 0 0 0 0 0 0 0 0 0 0 0 0 0 0 0 0 0 0 0 0 0 0 0 0 0 0 0 0 0 0 0 0 0 0 0 0 0 0 0 0 0 0 0 0 0 0 0 0 0 0 0 0 0 0 0 0 0 0 0 0 0 0 0 0 0 0 0 0 0 0 0 0 0 0 0 0 0 0 0 0 0 0 0 0 0 0 0 0 0 0 0 0 0 0 0 0 0 0 0 0 0 0 0 0 0 0 0 0 0 0 0 0 0 0 0 0 0 0 0 0 0 0 0 0 0 0 0 0 0 0 0 0 0 0 0 0 0 0 0 0 0 0 0 0 0 0 0 0 0 0 0 0 0 0 0 0 0 0 0 0 0 0 0 0 0 0 0 0 0 0 0 0 0 0 0 0 0 0 0 0 0 0 0 0 0 0 0 0 0 0 0 0 0 0 0 0 0 0 0 0 0 0 0 0 0 0 0 0 0 0 0 0 0 0 0 0 0 0 0 0 0 0 0 0 0 0 0 0 0 0 0 0 0 0 0 0 0 0 0 0 0 0 0 0 0 0 0 0 0 0 0 0 0 0 0 0 0 0 0 0 0 0 0 0 0 0 0 0 0 0 0 0 0 0 0 0 0 0 0 0 0 0 0 0 0 0 0 0 0 0 0 0 0 0 0 0 0 0 0 0 0 0 0 0 0 0 0 0 0 0 0 0 0 0 0 0 0 0 0 0 0 0 0 0 0 0 0 0 0 0 0 0 0 0 0 0 0 0 0 0 0 0 0 0 0 0 0 0 0 0 0 0 0 0 0 0 0 0 0 0 0 0 0 0 0 0 0 0 0 0 0 0 0 0 0 0 0 0 0 0 0 0 0 0 0 0 0 0 0 0 0 0 0 0 0 0 0 0 0 0 0 0 0 0 0 0 0 0 0 0 0 0 0 0 0 0 0 0 0 0 0 0 0 0 0 0 0 0 0 0 0 0 0 0 0 0 0 0 0 0 0 0 0 0 0 0 0 0 0 0 0 0 0 0 0 0 0 0 0 0 0 0 0 0 0 0 0 0 0 0 0 0 0 0 0 0 0 0 0 0 0 0 0 0 0 0 0 0 0 0 0 0 0 0 0 0 0 0 0 0 0 0 0 0 0 0 0 0 0 0 0 0 0 0 0 0 0 0 0 0 0 0 0 0 0 0 0 0 0 0 0 0 0 0 0 0 0 0 0 0 0 0 0 0 0 0 0 0 0 0 0 0 0 0 0 0 0 0 0 0 0 0 0 0 0 0 0 0 0 0 0 0 0 0 0 0 0 0 0 0 0 0 0 0 0 0 0 0 0 0 0 0 0 0 0 0 0 0 0 0 0 0 0 0 0 0 0 0 0 0 0 0 0 0 0 0 0 0 0 0 0 0 0 0 0 0 0 0 0 0 0 0 0 0 0 0 0 0 0 0 0 0 0 0 0 0 0 0 0 0 0 0 0 0 0 0 0 0 0 0 0 0 0 0 0 0 0 0 0 0 0 0 0 0 0 0 0 0 0 0 0 0 0 0 0 0 0 0 0 0 0 0 0 0 0 0 0 0 0 0 0 0 0 0 0 0 0 0 0 0 0 0 0 0 0 0 0 0 0 0 0 0 0 0 0 0 0 0 0 0 0 0 0 0 0 0 0 0 0 0 0 0 0 0 0 0 0 0 0 0 0 0 0 0 0 0 0 0 0 0 0 0 0 0 0 0 0 0 0 0 0 0 0 0 0 0 0 0 0 0 0 0 0 0 0 0 0 0 0 0 0 0 0 0 0 0 0 0 0 0 0 0 0 0 0 0 0 0 0 0 0 0 0 0 0 0 0 0 0 0 0 0 0 0 0 0 0 0 0 0 0 0 0 0 0 0 0 0 0 0 0 0 0 0 0 0 0 0 0 0 0 0 0 0 0 0 0 0 0 0 0 0 0 0 0 0 0 0 0 0 0 0 0 0 0 0 0 0 0 0 0 0 0 0 0 0 0 0 0 0 0 0 0 0 0 0 0 0 0 0 0 0 0 0 0 0 0 0 0 0 0 0 0 0 0 0 0 0 0 0 0 0 0 0 0 0 0 0 0 0 0 0 0 0 0 0 0 0 0 0 0 0 0 0 0 0 0 0 0 0 0 0 0 0 0 0 0 0 0 0 0 0 0 0 0 0 0 0 0 0 0 0 0 0 0 0 0 0 0 0 0 0 0 0 0 0 0 0 0 0 0 0 0 0 0 0 0 0 0 0 0 0 0 0 0 0 0 0 0 0 0 0 0 0 0 0 0 0 0 0 0 0 0 0 0 0 0 0 0 0 0 0 0 0 0 0 0 0 0 0 0 0 0 0 0 0 0 0 0 0 0 0 0 0 0 0 0 0 0 0 0 0 0 0 0 0 0 0 0 0 0 0 0 0 0 0 0 0 0 0 0 0 0 0 0 0 0 0 0 0 0 0 0 0 0 0 0 0 0 0 0 0 0 0 0 0 0 0 0 0 0 0 0 0 0 0 0 0 0 0 0 0 0 0 0 0 0 0 0 0 0 0 0 0 0 0 0 0 0 0 0 0 0 0 0 0 0 0 0 0 0 0 0 0 0 0 0 0 0 0 0 0 0 0 0 0 0 0 0 0 0 0 0 0 0 0 0 0 0 0 0 0 0 0 0 0 0 0 0 0 